(set-option :produce-models true)
(set-logic QF_UF)
(declare-fun p8() Bool)
(declare-fun p21() Bool)
(declare-fun p18() Bool)
(declare-fun p14() Bool)
(declare-fun p3() Bool)
(declare-fun p2() Bool)
(declare-fun p23() Bool)
(declare-fun p4() Bool)
(declare-fun p19() Bool)
(declare-fun p9() Bool)
(declare-fun p6() Bool)
(declare-fun p7() Bool)
(declare-fun p0() Bool)
(declare-fun p22() Bool)
(declare-fun p17() Bool)
(declare-fun p20() Bool)
(declare-fun p12() Bool)
(declare-fun p24() Bool)
(declare-fun p16() Bool)
(declare-fun p1() Bool)
(declare-fun p11() Bool)
(declare-fun p5() Bool)
(declare-fun p10() Bool)
(declare-fun p13() Bool)
(declare-fun p15() Bool)
(assert
(and (or (not p8) p21 (not p18)) (or p14 (not p3) (not p2)) (or p14 p23 (not p4)) (or (not p21) (not p19) p9) (or (not p2) (not p2) (not p6)) (or (not p7) (not p0) (not p0)) (or p21 (not p22) (not p17)) (or (not p18) p20 p12) (or p20 p22 (not p23)) (or p24 (not p9) p16) (or p2 p4 p24) (or (not p21) p1 (not p18)) (or (not p14) p11 p5) (or (not p10) (not p7) (not p20)) (or p6 p8 p11) (or p6 (not p3) p3) (or p13 (not p23) p5) (or (not p12) p11 (not p11)) (or p19 (not p5) (not p18)) (or (not p10) p13 (not p13)) (or (not p22) (not p8) (not p20)) (or (not p3) p19 (not p8)) (or p2 (not p14) p8) (or p8 (not p19) p24) (or (not p13) p2 (not p24)) (or p2 p1 (not p22)) (or p16 (not p11) p1) (or (not p11) (not p23) (not p2)) (or p22 p13 (not p3)) (or (not p12) p2 (not p10)) (or p13 p11 p9) (or (not p5) p24 p24) (or p11 p9 p15) (or p14 p16 (not p5)) (or p19 p4 p21) (or p20 p24 p0) (or (not p24) (not p4) p10) (or (not p2) (not p10) (not p3)) (or p14 (not p22) p7) (or (not p5) (not p23) (not p10)) (or p10 (not p11) p7) (or (not p23) (not p12) p9) (or p0 (not p10) p12) (or p23 (not p9) (not p4)) (or (not p7) (not p24) (not p10)) (or p22 (not p23) (not p13)) (or p15 (not p0) (not p1)) (or (not p23) (not p7) (not p16)) (or p16 (not p5) (not p7)) (or (not p0) p5 p21) (or (not p18) p3 p9) (or p18 p3 (not p24)) (or (not p4) p9 (not p13)) (or (not p20) (not p1) p15) (or p8 (not p8) (not p11)) (or p8 (not p20) p10) (or p23 p0 p12) (or (not p17) (not p12) (not p12)) (or p7 p10 p17) (or (not p14) (not p12) (not p13)) (or (not p9) p18 (not p20)) (or (not p0) (not p15) (not p13)) (or (not p10) (not p24) p15) (or (not p14) (not p22) (not p17)) (or p13 (not p22) p21) (or p3 p0 p19) (or (not p22) (not p7) (not p12)) (or p10 p4 (not p17)) (or (not p11) (not p17) p7) (or (not p13) (not p9) (not p24)) (or p21 p7 (not p11)) (or (not p20) p21 (not p17)) (or p19 (not p11) p12) (or p19 p16 (not p5)) (or p15 p1 p16) (or p11 p12 (not p16)) (or p18 p4 p10) (or (not p13) (not p12) p20) (or (not p6) p3 (not p2)) (or p15 p17 p20) (or p12 p17 p17) (or p20 p8 p5) (or (not p8) (not p4) (not p5)) (or p23 (not p9) (not p15)) (or (not p11) p23 (not p3)) (or p5 p8 (not p14)) (or p22 p18 p3) (or (not p17) p12 (not p12)) (or p16 p23 p4) (or (not p18) p3 p9) (or p7 p23 p17) (or p17 p2 p11) (or p12 (not p23) (not p22)) (or (not p16) p2 p17) (or (not p23) p14 p18) (or (not p24) p5 (not p19)) (or p1 p20 p8) (or p14 (not p16) (not p3)) (or (not p19) (not p3) p20) (or p12 (not p18) p3) (or p10 (not p1) (not p16)) (or p3 (not p22) p1) (or p9 (not p24) p13) (or (not p19) p3 p19) (or (not p18) (not p21) (not p22)) (or p0 (not p23) (not p2)) (or p0 p5 p14))
)
(check-sat)
(get-model)
